StringID   Type       x          y          demand     ReadyTime  DueDate    ServiceTime  wp1 wp2 wp3 wp4 wp5 wp6 wp7 wp8 wp9 wp10 wp11 wp12 wp13 wp14 wp15 wp16 wp17
D0         d          35.0       35.0       0.0        0.0        1000.0     0.0          6   7   8   9   10  11  12  13  14  15   16   17   18   19   20   21   22 
S0         f          35.0       35.0       0.0        0.0        1000.0     0.0          0.2 0.4 0.6 1   1   1   1   1   1   1    1    0.6  0.4  0.2  0    0    0 
S1         f          61.0       37.0       0.0        0.0        1000.0     0.0          0   0.1 0.2 0.3 0.3 0.2 0.2 0.2 0.2 0.3  0.3  0.2  0.1  0.0  0    0    0 
S2         f          74.0       39.0       0.0        0.0        1000.0     0.0          0.2 0.4 0.6 1   1   1   1   1   1   1    1    0.6  0.4  0.2  0    0    0 
S3         f          47.0       57.0       0.0        0.0        1000.0     0.0          0.2 0.4 0.6 1   1   1   1   1   1   1    1    0.6  0.4  0.2  0    0    0 
S4         f          57.0       65.0       0.0        0.0        1000.0     0.0          0.2 0.4 0.6 1   1   1   1   1   1   1    1    0.6  0.4  0.2  0    0    0 
S5         f          29.0       59.0       0.0        0.0        1000.0     0.0          0.2 0.4 0.6 1   1   1   1   1   1   1    1    0.6  0.4  0.2  0    0    0 
S6         f          34.0       71.0       0.0        0.0        1000.0     0.0          0.2 0.4 0.6 1   1   1   1   1   1   1    1    0.6  0.4  0.2  0    0    0 
S7         f          22.0       58.0       0.0        0.0        1000.0     0.0          0   0.1 0.2 0.3 0.3 0.2 0.2 0.2 0.2 0.3  0.3  0.2  0.1  0.0  0    0    0
S8         f          7.0        61.0       0.0        0.0        1000.0     0.0          0   0.1 0.2 0.3 0.3 0.2 0.2 0.2 0.2 0.3  0.3  0.2  0.1  0.0  0    0    0
S9         f          18.0       41.0       0.0        0.0        1000.0     0.0          0.2 0.4 0.6 1   1   1   1   1   1   1    1    0.6  0.4  0.2  0    0    0
S10        f          5.0        39.0       0.0        0.0        1000.0     0.0          0   0.1 0.2 0.3 0.3 0.2 0.2 0.2 0.2 0.3  0.3  0.2  0.1  0.0  0    0    0
S11        f          14.0       20.0       0.0        0.0        1000.0     0.0          0   0.1 0.2 0.3 0.3 0.2 0.2 0.2 0.2 0.3  0.3  0.2  0.1  0.0  0    0    0
S12        f          0.0        26.0       0.0        0.0        1000.0     0.0          0.2 0.4 0.6 1   1   1   1   1   1   1    1    0.6  0.4  0.2  0    0    0
S13        f          24.0       25.0       0.0        0.0        1000.0     0.0          0.2 0.4 0.6 1   1   1   1   1   1   1    1    0.6  0.4  0.2  0    0    0
S14        f          26.0       6.0        0.0        0.0        1000.0     0.0          0.2 0.4 0.6 1   1   1   1   1   1   1    1    0.6  0.4  0.2  0    0    0
S15        f          34.0       20.0       0.0        0.0        1000.0     0.0          0   0.1 0.2 0.3 0.3 0.2 0.2 0.2 0.2 0.3  0.3  0.2  0.1  0.0  0    0    0
S16        f          41.0       5.0        0.0        0.0        1000.0     0.0          0   0.1 0.2 0.3 0.3 0.2 0.2 0.2 0.2 0.3  0.3  0.2  0.1  0.0  0    0    0
S17        f          50.0       9.0        0.0        0.0        1000.0     0.0          0.2 0.4 0.6 1   1   1   1   1   1   1    1    0.6  0.4  0.2  0    0    0
S18        f          61.0       14.0       0.0        0.0        1000.0     0.0          0.2 0.4 0.6 1   1   1   1   1   1   1    1    0.6  0.4  0.2  0    0    0
S19        f          62.0       21.0       0.0        0.0        1000.0     0.0          0.2 0.4 0.6 1   1   1   1   1   1   1    1    0.6  0.4  0.2  0    0    0
S20        f          74.0       30.0       0.0        0.0        1000.0     0.0          0   0.1 0.2 0.3 0.3 0.2 0.2 0.2 0.2 0.3  0.3  0.2  0.1  0.0  0    0    0     
C26        c          45.0       30.0       17.0       0.0        978.0      10.0       
C27        c          35.0       40.0       16.0       299.0      477.0      10.0       
C28        c          41.0       37.0       16.0       0.0        983.0      10.0       
C29        c          64.0       42.0       9.0        847.0      960.0      10.0       
C30        c          40.0       60.0       21.0       0.0        964.0      10.0           
C46        c          2.0        48.0       1.0        58.0       194.0      10.0       
C47        c          8.0        56.0       27.0       619.0      763.0      10.0       
C48        c          13.0       52.0       36.0       0.0        962.0      10.0       
C49        c          6.0        68.0       30.0       0.0        946.0      10.0       
C50        c          47.0       47.0       13.0       507.0      599.0      10.0       
C51        c          49.0       58.0       10.0       0.0        963.0      10.0       
C52        c          27.0       43.0       9.0        0.0        978.0      10.0       
C53        c          37.0       31.0       14.0       0.0        985.0      10.0       
C54        c          57.0       29.0       18.0       23.0       144.0      10.0       
C55        c          63.0       23.0       2.0        420.0      590.0      10.0         
C71        c          57.0       68.0       15.0       0.0        950.0      10.0       
C72        c          47.0       16.0       25.0       0.0        967.0      10.0       
C73        c          44.0       17.0       9.0        0.0        969.0      10.0       
C74        c          46.0       13.0       8.0        0.0        965.0      10.0       
C75        c          49.0       11.0       18.0       0.0        962.0      10.0             
C91        c          15.0       19.0       1.0        463.0      617.0      10.0       
C92        c          22.0       22.0       2.0        223.0      399.0      10.0       
C93        c          18.0       24.0       22.0       0.0        969.0      10.0       
C94        c          26.0       27.0       27.0       534.0      642.0      10.0       
C95        c          25.0       24.0       20.0       15.0       179.0      10.0             

F Vehicle fuel tank capacity /9.4/
Q Vehicle load capacity /1000.0/
r fuel consumption rate /0.155/
g inverse refueling rate /0.5/
v average Velocity /1.0/
